100 2403
0 1
0 3
0 4
0 6
0 11
0 12
0 13
0 14
0 18
0 19
0 20
0 21
0 24
0 25
0 26
0 27
0 29
0 31
0 35
0 39
0 43
0 48
0 49
0 50
0 51
0 53
0 57
0 61
0 63
0 65
0 66
0 68
0 69
0 70
0 71
0 72
0 73
0 75
0 78
0 79
0 80
0 82
0 91
0 93
0 94
0 96
0 97
0 98
1 2
1 3
1 9
1 10
1 14
1 17
1 19
1 21
1 22
1 23
1 24
1 25
1 26
1 27
1 29
1 33
1 34
1 35
1 37
1 38
1 40
1 45
1 47
1 50
1 52
1 53
1 57
1 58
1 60
1 63
1 69
1 72
1 73
1 75
1 78
1 80
1 82
1 83
1 85
1 86
1 87
1 89
1 91
1 95
1 99
2 6
2 9
2 10
2 11
2 12
2 13
2 14
2 18
2 19
2 23
2 25
2 26
2 28
2 29
2 31
2 32
2 38
2 43
2 54
2 55
2 56
2 59
2 61
2 64
2 68
2 75
2 79
2 80
2 82
2 83
2 84
2 85
2 88
2 91
2 92
2 94
3 4
3 6
3 10
3 11
3 12
3 13
3 14
3 16
3 17
3 18
3 19
3 20
3 21
3 24
3 25
3 27
3 28
3 29
3 32
3 34
3 35
3 36
3 37
3 38
3 40
3 42
3 43
3 44
3 46
3 51
3 53
3 56
3 57
3 58
3 59
3 61
3 63
3 66
3 68
3 69
3 70
3 71
3 79
3 80
3 81
3 82
3 83
3 87
3 89
3 92
3 93
3 94
3 95
3 98
4 8
4 9
4 10
4 11
4 12
4 14
4 17
4 19
4 21
4 24
4 28
4 30
4 31
4 32
4 35
4 36
4 37
4 38
4 39
4 40
4 41
4 43
4 45
4 46
4 49
4 50
4 51
4 54
4 55
4 56
4 68
4 69
4 70
4 73
4 75
4 77
4 78
4 79
4 80
4 82
4 85
4 86
4 88
4 92
4 96
4 97
5 6
5 7
5 8
5 9
5 15
5 17
5 18
5 19
5 25
5 28
5 29
5 31
5 32
5 35
5 38
5 39
5 40
5 41
5 44
5 45
5 49
5 53
5 54
5 57
5 58
5 59
5 63
5 66
5 68
5 71
5 72
5 73
5 74
5 75
5 77
5 80
5 82
5 83
5 84
5 85
5 92
5 95
5 97
5 98
5 99
6 7
6 8
6 11
6 15
6 17
6 18
6 19
6 21
6 22
6 24
6 26
6 28
6 30
6 33
6 36
6 37
6 39
6 40
6 41
6 43
6 46
6 47
6 49
6 51
6 52
6 54
6 55
6 56
6 57
6 59
6 60
6 62
6 63
6 64
6 65
6 72
6 74
6 76
6 79
6 81
6 83
6 87
6 88
6 91
6 92
6 93
6 95
6 96
6 98
7 8
7 11
7 13
7 14
7 17
7 19
7 20
7 21
7 22
7 23
7 26
7 27
7 28
7 29
7 32
7 36
7 37
7 38
7 39
7 40
7 41
7 45
7 46
7 47
7 49
7 51
7 52
7 53
7 54
7 56
7 57
7 61
7 67
7 68
7 70
7 72
7 74
7 77
7 80
7 82
7 86
7 88
7 90
7 91
7 92
7 93
7 95
7 98
8 9
8 15
8 17
8 18
8 19
8 21
8 22
8 25
8 26
8 28
8 29
8 30
8 32
8 36
8 38
8 42
8 43
8 45
8 46
8 53
8 61
8 62
8 63
8 66
8 67
8 69
8 70
8 75
8 77
8 79
8 80
8 84
8 85
8 86
8 88
8 89
8 91
8 96
8 97
8 98
8 99
9 11
9 13
9 14
9 19
9 21
9 22
9 28
9 32
9 36
9 38
9 42
9 44
9 48
9 51
9 53
9 54
9 55
9 56
9 58
9 59
9 61
9 62
9 63
9 64
9 68
9 70
9 74
9 75
9 80
9 83
9 84
9 85
9 86
9 90
9 93
9 94
9 95
9 97
9 99
10 12
10 14
10 19
10 20
10 23
10 25
10 26
10 29
10 32
10 34
10 38
10 40
10 41
10 44
10 45
10 47
10 48
10 49
10 50
10 52
10 54
10 55
10 56
10 57
10 59
10 60
10 61
10 63
10 74
10 75
10 78
10 89
10 90
10 91
10 93
10 94
10 95
10 97
11 13
11 17
11 18
11 19
11 23
11 25
11 27
11 28
11 29
11 31
11 33
11 38
11 42
11 43
11 44
11 51
11 52
11 55
11 57
11 59
11 60
11 61
11 62
11 63
11 64
11 67
11 68
11 69
11 74
11 76
11 77
11 78
11 79
11 80
11 81
11 83
11 84
11 86
11 87
11 88
11 89
11 90
11 92
11 93
12 14
12 15
12 17
12 21
12 22
12 25
12 26
12 30
12 31
12 32
12 35
12 38
12 42
12 43
12 44
12 47
12 48
12 52
12 53
12 55
12 56
12 59
12 60
12 62
12 63
12 64
12 65
12 67
12 69
12 70
12 75
12 76
12 78
12 80
12 82
12 84
12 85
12 90
12 93
12 94
12 95
12 98
13 15
13 19
13 20
13 21
13 22
13 23
13 24
13 25
13 26
13 29
13 30
13 31
13 36
13 37
13 43
13 47
13 54
13 56
13 58
13 62
13 65
13 68
13 69
13 70
13 74
13 77
13 78
13 83
13 84
13 85
13 86
13 87
13 88
13 89
13 94
13 95
13 96
14 15
14 21
14 23
14 25
14 28
14 30
14 33
14 34
14 36
14 38
14 41
14 42
14 44
14 46
14 47
14 48
14 49
14 50
14 51
14 52
14 53
14 55
14 57
14 59
14 65
14 67
14 68
14 70
14 71
14 75
14 77
14 78
14 80
14 82
14 83
14 84
14 87
14 88
14 92
14 98
14 99
15 17
15 18
15 19
15 20
15 21
15 23
15 25
15 29
15 30
15 31
15 32
15 38
15 40
15 41
15 42
15 43
15 44
15 45
15 46
15 48
15 49
15 50
15 51
15 53
15 54
15 56
15 57
15 58
15 60
15 62
15 63
15 66
15 67
15 69
15 70
15 73
15 76
15 81
15 82
15 83
15 85
15 86
15 87
15 88
15 99
16 17
16 18
16 19
16 20
16 21
16 22
16 23
16 24
16 26
16 28
16 32
16 33
16 35
16 36
16 37
16 38
16 42
16 43
16 45
16 46
16 50
16 53
16 55
16 59
16 60
16 61
16 62
16 64
16 68
16 71
16 74
16 76
16 77
16 79
16 82
16 84
16 86
16 87
16 88
16 91
16 92
16 93
16 97
16 98
16 99
17 18
17 20
17 21
17 22
17 23
17 24
17 25
17 27
17 28
17 30
17 31
17 32
17 33
17 37
17 40
17 41
17 43
17 46
17 51
17 52
17 53
17 54
17 59
17 62
17 64
17 65
17 66
17 67
17 69
17 73
17 74
17 79
17 80
17 81
17 83
17 87
17 88
17 90
17 91
17 93
17 94
17 95
17 96
17 97
17 99
18 19
18 20
18 26
18 27
18 31
18 32
18 33
18 38
18 39
18 40
18 44
18 46
18 48
18 49
18 53
18 54
18 55
18 57
18 58
18 60
18 63
18 64
18 67
18 69
18 72
18 73
18 75
18 76
18 77
18 78
18 79
18 80
18 83
18 86
18 87
18 90
18 91
18 96
19 20
19 21
19 22
19 23
19 24
19 27
19 28
19 30
19 33
19 35
19 36
19 38
19 39
19 41
19 43
19 45
19 46
19 48
19 49
19 54
19 55
19 57
19 58
19 60
19 61
19 64
19 65
19 68
19 73
19 76
19 79
19 80
19 82
19 83
19 84
19 85
19 91
19 92
19 94
19 99
20 21
20 22
20 23
20 24
20 25
20 30
20 31
20 32
20 34
20 35
20 37
20 39
20 41
20 43
20 46
20 47
20 49
20 50
20 53
20 56
20 57
20 61
20 62
20 64
20 66
20 71
20 72
20 75
20 77
20 78
20 81
20 82
20 83
20 84
20 91
20 93
20 94
20 96
20 97
20 98
20 99
21 22
21 23
21 25
21 27
21 29
21 32
21 34
21 36
21 38
21 39
21 40
21 41
21 43
21 46
21 47
21 52
21 57
21 61
21 63
21 66
21 68
21 70
21 74
21 75
21 77
21 80
21 81
21 82
21 88
21 90
21 92
21 95
21 97
21 99
22 23
22 25
22 28
22 30
22 31
22 32
22 35
22 39
22 43
22 45
22 46
22 48
22 51
22 55
22 56
22 57
22 59
22 63
22 64
22 67
22 69
22 70
22 71
22 76
22 78
22 81
22 84
22 85
22 86
22 89
22 93
22 94
22 95
22 96
22 98
22 99
23 24
23 25
23 26
23 27
23 28
23 29
23 30
23 32
23 33
23 34
23 36
23 39
23 40
23 44
23 45
23 52
23 54
23 56
23 57
23 58
23 59
23 60
23 61
23 64
23 65
23 68
23 69
23 71
23 74
23 78
23 80
23 81
23 82
23 84
23 85
23 86
23 87
23 89
23 91
23 93
23 94
23 97
24 25
24 26
24 27
24 30
24 32
24 33
24 34
24 37
24 38
24 39
24 40
24 43
24 44
24 45
24 48
24 49
24 50
24 52
24 54
24 56
24 60
24 61
24 63
24 64
24 65
24 70
24 71
24 73
24 75
24 77
24 78
24 82
24 83
24 85
24 91
24 92
25 27
25 28
25 30
25 31
25 33
25 34
25 35
25 40
25 41
25 43
25 45
25 47
25 48
25 49
25 50
25 51
25 53
25 55
25 56
25 58
25 59
25 60
25 62
25 63
25 67
25 69
25 71
25 72
25 74
25 75
25 76
25 79
25 80
25 81
25 84
25 85
25 86
25 87
25 88
25 89
25 92
25 93
25 96
25 99
26 31
26 33
26 36
26 37
26 38
26 39
26 43
26 44
26 45
26 46
26 52
26 53
26 56
26 57
26 58
26 65
26 70
26 71
26 75
26 76
26 80
26 81
26 82
26 83
26 84
26 87
26 89
26 92
26 95
26 96
26 97
26 98
26 99
27 30
27 33
27 37
27 38
27 39
27 40
27 41
27 44
27 46
27 49
27 51
27 54
27 55
27 60
27 64
27 68
27 69
27 70
27 72
27 74
27 77
27 83
27 86
27 95
27 96
27 97
27 99
28 29
28 30
28 32
28 33
28 38
28 40
28 42
28 43
28 47
28 51
28 53
28 62
28 65
28 66
28 67
28 68
28 70
28 71
28 72
28 74
28 75
28 78
28 79
28 81
28 82
28 87
28 89
28 90
28 92
28 93
28 96
28 97
29 31
29 32
29 33
29 35
29 36
29 38
29 39
29 41
29 42
29 43
29 45
29 47
29 48
29 49
29 50
29 53
29 57
29 59
29 60
29 62
29 64
29 65
29 67
29 68
29 70
29 76
29 77
29 79
29 82
29 84
29 87
29 89
29 92
29 97
29 99
30 33
30 35
30 38
30 39
30 44
30 45
30 47
30 48
30 50
30 52
30 53
30 54
30 57
30 59
30 63
30 64
30 67
30 69
30 73
30 74
30 75
30 77
30 80
30 81
30 84
30 85
30 86
30 87
30 90
30 94
30 95
30 99
31 32
31 36
31 38
31 39
31 40
31 42
31 43
31 49
31 50
31 56
31 58
31 63
31 64
31 65
31 69
31 70
31 77
31 79
31 80
31 81
31 82
31 85
31 89
31 90
31 91
31 92
31 93
31 95
31 96
32 33
32 35
32 36
32 38
32 44
32 45
32 46
32 51
32 52
32 53
32 56
32 59
32 60
32 62
32 63
32 65
32 67
32 68
32 69
32 74
32 75
32 76
32 77
32 82
32 83
32 84
32 85
32 86
32 89
32 91
32 93
32 94
32 97
32 98
33 34
33 35
33 37
33 38
33 39
33 40
33 41
33 43
33 44
33 47
33 48
33 51
33 52
33 53
33 58
33 59
33 60
33 61
33 62
33 64
33 66
33 67
33 69
33 70
33 71
33 72
33 73
33 80
33 82
33 84
33 86
33 87
33 90
33 94
33 95
33 97
33 99
34 35
34 40
34 45
34 46
34 48
34 50
34 53
34 54
34 55
34 58
34 59
34 61
34 62
34 73
34 74
34 80
34 84
34 85
34 86
34 87
34 89
34 91
34 92
34 94
34 96
34 97
34 99
35 43
35 45
35 46
35 47
35 53
35 55
35 57
35 59
35 60
35 62
35 63
35 65
35 67
35 68
35 69
35 70
35 71
35 72
35 73
35 77
35 78
35 79
35 81
35 82
35 83
35 84
35 85
35 87
35 93
35 94
35 95
35 97
36 41
36 42
36 45
36 46
36 51
36 52
36 55
36 58
36 59
36 60
36 62
36 64
36 65
36 66
36 68
36 69
36 70
36 71
36 72
36 74
36 75
36 77
36 78
36 79
36 81
36 84
36 86
36 88
36 89
36 90
36 91
36 93
36 94
36 95
36 96
36 97
36 98
37 38
37 39
37 42
37 44
37 47
37 51
37 52
37 54
37 56
37 60
37 61
37 63
37 64
37 67
37 75
37 79
37 80
37 83
37 84
37 87
37 88
37 91
37 93
37 97
37 99
38 39
38 41
38 43
38 44
38 45
38 48
38 50
38 52
38 53
38 56
38 60
38 62
38 64
38 67
38 69
38 70
38 71
38 73
38 74
38 75
38 77
38 82
38 87
38 88
38 92
38 94
38 95
38 96
38 97
38 98
38 99
39 41
39 42
39 45
39 46
39 47
39 48
39 49
39 50
39 51
39 56
39 57
39 58
39 59
39 62
39 65
39 66
39 68
39 69
39 73
39 74
39 75
39 77
39 80
39 81
39 83
39 85
39 86
39 87
39 91
39 93
39 94
39 95
39 96
39 99
40 44
40 47
40 50
40 52
40 55
40 57
40 58
40 61
40 63
40 64
40 65
40 66
40 67
40 72
40 73
40 74
40 75
40 76
40 79
40 82
40 85
40 86
40 89
40 93
40 94
40 99
41 42
41 43
41 45
41 46
41 50
41 51
41 52
41 57
41 59
41 60
41 63
41 64
41 67
41 68
41 69
41 70
41 72
41 78
41 79
41 80
41 81
41 82
41 84
41 89
41 90
41 92
41 93
41 94
41 95
41 96
41 97
41 99
42 46
42 50
42 51
42 52
42 53
42 54
42 55
42 57
42 58
42 59
42 60
42 63
42 67
42 68
42 69
42 70
42 72
42 73
42 77
42 78
42 80
42 82
42 83
42 84
42 90
42 91
42 92
42 94
42 95
42 96
43 44
43 45
43 47
43 48
43 49
43 50
43 51
43 54
43 55
43 56
43 63
43 67
43 68
43 69
43 70
43 72
43 73
43 75
43 76
43 78
43 81
43 82
43 86
43 87
43 88
43 89
43 90
43 91
43 92
43 97
43 99
44 48
44 51
44 52
44 53
44 54
44 55
44 56
44 58
44 59
44 64
44 66
44 67
44 68
44 71
44 72
44 77
44 79
44 81
44 83
44 84
44 87
44 88
44 90
44 91
44 92
44 93
44 95
44 97
45 51
45 52
45 53
45 54
45 55
45 57
45 60
45 62
45 63
45 65
45 67
45 69
45 71
45 72
45 74
45 75
45 77
45 79
45 83
45 84
45 86
45 88
45 89
45 90
45 92
45 97
45 98
45 99
46 49
46 50
46 51
46 52
46 54
46 60
46 65
46 68
46 69
46 74
46 77
46 79
46 80
46 81
46 82
46 86
46 87
46 88
46 91
46 93
46 94
46 95
46 96
46 97
46 99
47 48
47 50
47 51
47 52
47 53
47 54
47 58
47 59
47 61
47 62
47 64
47 66
47 68
47 70
47 76
47 80
47 83
47 84
47 87
47 90
47 91
47 93
47 94
47 95
47 97
48 49
48 54
48 59
48 60
48 61
48 63
48 65
48 66
48 67
48 68
48 69
48 71
48 74
48 75
48 76
48 77
48 78
48 79
48 80
48 82
48 85
48 86
48 88
48 90
48 91
48 95
48 96
48 98
49 50
49 51
49 52
49 54
49 56
49 59
49 60
49 62
49 66
49 67
49 71
49 72
49 73
49 75
49 76
49 80
49 86
49 87
49 88
49 89
49 91
49 93
49 94
49 97
49 98
50 53
50 56
50 57
50 58
50 60
50 61
50 64
50 65
50 66
50 67
50 68
50 73
50 75
50 77
50 84
50 85
50 86
50 88
50 89
50 92
50 93
50 95
50 96
50 97
50 99
51 55
51 57
51 58
51 60
51 61
51 63
51 65
51 67
51 68
51 70
51 75
51 78
51 80
51 81
51 84
51 85
51 86
51 90
51 92
51 94
51 95
51 96
51 97
52 53
52 56
52 58
52 59
52 61
52 62
52 63
52 64
52 65
52 67
52 68
52 69
52 70
52 72
52 75
52 80
52 81
52 83
52 84
52 85
52 87
52 90
52 98
53 55
53 56
53 58
53 60
53 61
53 63
53 64
53 65
53 68
53 70
53 71
53 73
53 74
53 75
53 76
53 79
53 80
53 81
53 82
53 87
53 88
53 90
53 92
53 94
53 96
53 97
54 57
54 58
54 60
54 61
54 64
54 66
54 67
54 68
54 71
54 72
54 77
54 80
54 81
54 83
54 85
54 87
54 89
54 90
54 92
54 97
54 98
54 99
55 58
55 59
55 63
55 66
55 67
55 68
55 69
55 71
55 72
55 73
55 74
55 75
55 78
55 79
55 80
55 81
55 82
55 84
55 85
55 86
55 87
55 88
55 89
55 96
55 97
55 98
56 58
56 61
56 62
56 65
56 68
56 70
56 72
56 73
56 74
56 81
56 84
56 88
56 89
56 91
56 92
56 94
56 95
56 96
56 97
56 99
57 58
57 60
57 63
57 66
57 67
57 71
57 73
57 74
57 78
57 79
57 81
57 85
57 86
57 88
57 91
57 92
57 93
57 94
57 95
57 97
57 98
57 99
58 61
58 62
58 63
58 65
58 66
58 67
58 70
58 71
58 72
58 73
58 74
58 75
58 78
58 79
58 84
58 85
58 87
58 89
58 92
58 93
58 96
58 98
59 60
59 64
59 65
59 66
59 76
59 80
59 81
59 84
59 86
59 91
59 92
59 94
59 96
59 97
59 98
60 61
60 62
60 64
60 67
60 70
60 71
60 75
60 76
60 78
60 79
60 81
60 82
60 89
60 92
60 93
60 94
60 98
60 99
61 63
61 64
61 65
61 66
61 68
61 72
61 74
61 75
61 76
61 77
61 82
61 84
61 90
61 92
61 98
62 63
62 65
62 66
62 68
62 69
62 72
62 75
62 76
62 78
62 79
62 85
62 87
62 89
62 90
62 95
62 96
62 98
63 67
63 68
63 72
63 77
63 79
63 80
63 81
63 82
63 83
63 86
63 93
63 97
64 67
64 68
64 69
64 71
64 73
64 75
64 77
64 78
64 81
64 88
64 89
64 90
64 91
64 94
64 95
64 98
65 66
65 68
65 69
65 70
65 72
65 76
65 79
65 81
65 82
65 86
65 87
65 89
65 91
65 92
65 93
65 94
66 68
66 73
66 74
66 78
66 81
66 83
66 84
66 85
66 87
66 88
66 90
66 92
66 93
66 94
66 98
67 72
67 73
67 74
67 75
67 77
67 79
67 80
67 87
67 88
67 92
67 95
67 98
68 69
68 72
68 75
68 78
68 79
68 80
68 81
68 83
68 85
68 93
68 94
68 95
68 96
68 97
68 98
69 70
69 71
69 74
69 76
69 78
69 79
69 80
69 81
69 82
69 83
69 84
69 90
69 91
69 93
69 95
69 98
70 71
70 81
70 86
70 89
70 90
70 91
70 94
70 95
70 98
71 72
71 73
71 74
71 76
71 77
71 79
71 81
71 83
71 84
71 85
71 86
71 89
71 90
71 91
71 96
71 97
72 79
72 81
72 82
72 90
72 91
72 92
72 93
72 96
72 97
72 98
73 76
73 77
73 83
73 86
73 88
73 89
73 90
73 92
73 97
73 98
73 99
74 76
74 79
74 81
74 82
74 83
74 84
74 88
74 89
74 93
74 94
74 95
75 76
75 78
75 80
75 81
75 82
75 83
75 87
75 89
75 93
75 94
75 95
75 96
75 97
75 98
76 78
76 79
76 82
76 83
76 86
76 89
76 91
76 92
76 93
76 96
76 97
77 80
77 82
77 84
77 86
77 87
77 88
77 90
77 93
77 96
77 98
77 99
78 84
78 86
78 88
78 91
78 93
78 96
78 99
79 80
79 84
79 86
79 89
79 92
79 93
79 95
79 98
80 84
80 85
80 87
80 89
80 90
80 92
80 93
80 94
80 95
80 96
80 97
81 84
81 85
81 86
81 89
81 91
81 92
81 94
82 85
82 86
82 87
82 89
82 92
82 97
82 99
83 84
83 85
83 87
83 88
83 90
83 91
83 92
83 95
83 96
83 97
83 98
83 99
84 86
84 87
84 89
84 90
84 92
84 93
84 95
84 97
84 98
84 99
85 86
85 92
85 93
85 95
85 96
85 98
86 92
86 93
86 95
86 98
87 88
87 93
87 94
87 96
88 89
88 92
88 93
88 97
89 90
89 91
89 92
89 96
89 97
89 98
90 91
90 92
90 96
90 97
90 98
90 99
91 93
91 94
91 95
91 96
91 97
91 98
91 99
92 94
92 96
92 98
92 99
93 94
93 95
93 96
94 95
94 98
95 97
95 98
96 98
98 99
